(declare-const delta_i Int)
(declare-const delta_j___0 Int)
(declare-const delta_z Int)
(declare-const delta_x Int)
(declare-const delta_y Int)
(declare-const delta_w Int)
(declare-const delta_tmp___1 Int)
(declare-const delta_k Int)
(declare-const delta_tmp___0 Int)
(assert (exists
         ((|tmp___1'?1| Int) (|j___0'?2| Int) (|w'?3| Int) (|z'?4| Int)
            (havoc?5 Int) (|tmp___0'?6| Int) (|S1,1?7| Real) (|y'?8| Int)
            (|S1,0?9| Real) (|x'?10| Int) (KSUM1?11 Int) (|K1,1?12| Int)
            (|K1,0?13| Int) (K?14 Int) (phi_y?15 Int) (phi_x?16 Int)
            (|S1,1?17| Real) (|k'?18| Int) (|S1,0?19| Real) (|i'?20| Int)
            (KSUM1?21 Int) (|K1,0?22| Int) (K?23 Int) (havoc?24 Int)
            (|k'?25| Int) (|i'?26| Int) (|tmp___0'?27| Int) (|y'?28| Int)
            (|x'?29| Int) (tmp___0?30 Int) (y?31 Int) (x?32 Int) (k?33 Int)
            (j___0?34 Int) (i?35 Int) (w?36 Int) (z?37 Int) (tmp___1?38 Int))
         (and (<= (- x?32) 0) (<= (- z?37) 0)
                (or (< havoc?24 0) (< 0 havoc?24)) (<= (- K?23) 0)
                (<= (- |K1,0?22|) 0) (= (+ |K1,0?22| (- K?23)) 0)
                (<= (+ KSUM1?21 (- K?23)) 0)
                (= (+ (- |S1,0?19|) |i'?20| (- |K1,0?22|)) 0)
                (= (+ (- |S1,1?17|) |k'?18| (- |K1,0?22|)) 0)
                (= (+ (- KSUM1?21) |K1,0?22|) 0) (= (+ |S1,0?19| (- z?37)) 0)
                (= |S1,1?17| 0)
                (or (and (= K?23 0) (= (- |k'?18|) 0)
                           (= (+ (- |i'?20|) z?37) 0))
                      (and (<= (+ (- K?23) 1) 0) (<= (+ (- w?36) z?37 1) 0)
                             (<= (- z?37) 0) (<= (+ (- w?36) |i'?20|) 0)
                             (<= (+ (- |k'?18|) 1) 0)
                             (<= (+ (- |i'?20|) 1) 0)))
                (= (+ |i'?20| (- K?23) (- z?37)) 0)
                (= (+ |k'?18| (- K?23)) 0) (<= (- K?23) 0) (<= (- |k'?18|) 0)
                (<= (- |i'?20|) 0) (<= (+ w?36 (- |i'?20|)) 0)
                (or (and (= (+ (mod z?37 2) -1) 0)
                           (= (+ (- phi_x?16) z?37 1) 0)
                           (= (+ (- phi_y?15) |k'?18| -1) 0))
                      (and (or (< (+ (mod z?37 2) -1) 0)
                                 (< 0 (+ (mod z?37 2) -1)))
                             (= (+ (- phi_x?16) z?37) 0)
                             (= (+ (- phi_y?15) |k'?18|) 0))) (<= (- K?14) 0)
                (<= (- |K1,0?13|) 0) (<= (- |K1,1?12|) 0)
                (= (+ |K1,1?12| |K1,0?13| (- K?14)) 0)
                (<= (+ KSUM1?11 (- K?14)) 0)
                (= (+ (- |S1,0?9|) |x'?10| (* -2 |K1,1?12|) |K1,0?13|) 0)
                (= (+ (- |S1,1?7|) |y'?8| (* 2 |K1,1?12|) |K1,0?13|) 0)
                (= (+ (- KSUM1?11) |K1,1?12| |K1,0?13|) 0)
                (= (+ |S1,0?9| (- phi_x?16)) 0)
                (= (+ |S1,1?7| (- phi_y?15)) 0)
                (or (and (= K?14 0) (= (+ (- |tmp___0'?6|) tmp___0?30) 0)
                           (= (+ (- |y'?8|) phi_y?15) 0)
                           (= (+ (- |x'?10|) phi_x?16) 0))
                      (and (<= (+ (- K?14) 1) 0)
                             (<= (+ (mod phi_x?16 2) -1) 0)
                             (<= (- (mod phi_x?16 2)) 0) (<= (- phi_x?16) 0)
                             (<= (+ (- |x'?10|) -1) 0)))
                (= (+ (* 3 |y'?8|) |x'?10| (* 4 K?14) (* -3 phi_y?15)
                        (- phi_x?16)) 0) (<= (+ |y'?8| K?14 (- phi_y?15)) 0)
                (<= (+ (- |y'?8|) (* -2 K?14) phi_y?15) 0) (<= (- K?14) 0)
                (<= (- |x'?10|) 0) (= havoc?5 0)
                (= (+ |tmp___1'?1| (- havoc?24)) 0)
                (= (+ |tmp___0'?27| (- havoc?5)) 0)
                (= (+ |k'?25| (- |k'?18|)) 0) (= (+ |j___0'?2| (- w?36)) 0)
                (= (+ |i'?26| (- |i'?20|)) 0)
                (= (+ |w'?3| (- |y'?8|) (- |x'?10|) -1) 0)
                (= (+ |z'?4| (- z?37) -1) 0) (= (+ |y'?28| (- |y'?8|)) 0)
                (= (+ |x'?29| (- |x'?10|)) 0)
                (= delta_x (+ |x'?29| (- x?32)))
                (= delta_y (+ |y'?28| (- y?31)))
                (= delta_z (+ |z'?4| (- z?37)))
                (= delta_w (+ |w'?3| (- w?36)))
                (= delta_i (+ |i'?26| (- i?35)))
                (= delta_j___0 (+ |j___0'?2| (- j___0?34)))
                (= delta_k (+ |k'?25| (- k?33)))
                (= delta_tmp___0 (+ |tmp___0'?27| (- tmp___0?30)))
                (= delta_tmp___1 (+ |tmp___1'?1| (- tmp___1?38))))))
(check-sat)
